#Generated by Multiwfn (http://sobereva.com/multiwfn)
&GLOBAL
  PROJECT cp2k
  PRINT_LEVEL MEDIUM
  RUN_TYPE MD
&END GLOBAL

&FORCE_EVAL
  METHOD Quickstep
  &SUBSYS
    &CELL
      A    38.98100000     0.00000000     0.00000000
      B     0.00000000    22.50600000     0.00000000
      C     0.00000000     0.00000000    30.00000000
      PERIODIC XYZ #Direction(s) of applied PBC (geometry aspect)
    &END CELL
    &COORD
      O          21.52700000    4.94600000   11.66500000
      O           2.03600000   16.19900000   11.66500000
      O          11.44700000   20.37900000   11.66900000
      O          30.93800000    9.12600000   11.66900000
      O          20.63200000    9.59500000   11.50600000
      O           1.14100000   20.84800000   11.50600000
      O          12.24800000   15.68700000   11.58400000
      O          31.73900000    4.43400000   11.58400000
      O          17.01400000    6.39800000   11.58800000
      O          36.50500000   17.65100000   11.58800000
      O          15.91200000   18.72900000   11.66700000
      O          35.40300000    7.47600000   11.66700000
      N          17.59900000    3.90200000   11.66600000
      N          37.09000000   15.15500000   11.66600000
      N          15.42400000   21.26000000   11.74400000
      N          34.91500000   10.00700000   11.74400000
      N          23.41000000    6.69400000   11.58700000
      N           3.92000000   17.94700000   11.58700000
      N           9.48100000   18.68000000   11.66100000
      N          28.97200000    7.42700000   11.66100000
      N          17.73900000   10.21000000   11.83500000
      N          37.23000000   21.46300000   11.83500000
      N          14.70700000   14.84600000   11.50100000
      N          34.19800000    3.59300000   11.50100000
      C          20.64900000    5.94800000   11.62400000
      C           1.15900000   17.20100000   11.62400000
      C          12.29000000   19.34500000   11.66400000
      C          31.78000000    8.09200000   11.66400000
      C          20.13100000    8.38700000   11.56000000
      C           0.64000000   19.64000000   11.56000000
      C          12.72200000   16.93400000   11.61300000
      C          32.21300000    5.68100000   11.61300000
      C          18.31900000    6.66800000   11.60200000
      C          37.81000000   17.92100000   11.60200000
      C          14.59800000   18.51300000   11.65400000
      C          34.08900000    7.26000000   11.65400000
      C          19.27200000    5.61100000   11.62300000
      C          38.76300000   16.86400000   11.62300000
      C          13.68300000   19.60900000   11.68000000
      C          33.17400000    8.35600000   11.68000000
      C          21.08400000    7.30700000   11.57700000
      C           1.59300000   18.56000000   11.57700000
      C          11.79300000   18.00600000   11.64300000
      C          31.28400000    6.75300000   11.64300000
      C          18.70900000    8.04000000   11.60700000
      C          38.20000000   19.29300000   11.60700000
      C          14.13400000   17.17200000   11.61200000
      C          33.62500000    5.91900000   11.61200000
      C          18.82200000    4.26700000   11.65800000
      C          38.31300000   15.52000000   11.65800000
      C          14.19200000   20.93300000   11.71500000
      C          33.68300000    9.68000000   11.71500000
      C          22.48000000    7.57000000   11.56400000
      C           2.98900000   18.82300000   11.56400000
      C          10.38900000   17.78400000   11.64000000
      C          29.88000000    6.53100000   11.64000000
      C          17.66000000    8.96500000   11.71100000
      C          37.15100000   20.21800000   11.71100000
      C          15.03600000   16.07500000   11.58000000
      C          34.52700000    4.82200000   11.58000000
      C          17.09000000    2.60100000   11.69900000
      C          36.58100000   13.85400000   11.69900000
      C          15.94800000    0.05200000   11.74200000
      C          35.43800000   11.30500000   11.74200000
      C          24.79400000    6.91400000   11.60100000
      C           5.30300000   18.16700000   11.60100000
      C           8.09200000   18.47300000   11.64300000
      C          27.58300000    7.22000000   11.64300000
      C          16.87700000   11.30500000   11.76500000
      C          36.36800000    0.05200000   11.76500000
      C          15.51000000   13.70200000   11.54100000
      C          35.00100000    2.44900000   11.54100000
      C          17.91700000    1.46300000   11.73200000
      C          37.40800000   12.71600000   11.73200000
      C          15.12100000    1.19000000   11.71700000
      C          34.61200000   12.44300000   11.71700000
      C          25.36300000    8.20200000   11.62200000
      C           5.87200000   19.45500000   11.62200000
      C           7.52300000   17.18600000   11.62100000
      C          27.01400000    5.93300000   11.62100000
      C          15.52300000   11.26400000   11.45300000
      C          35.01400000    0.01100000   11.45300000
      C          16.90500000   13.73500000   11.79000000
      C          36.39500000    2.48200000   11.79000000
      C          15.69100000    2.45300000   11.69600000
      C          35.18200000   13.70600000   11.69600000
      C          17.34600000    0.19800000   11.75400000
      C          36.83700000   11.45100000   11.75400000
      C          25.63400000    5.78500000   11.60100000
      C           6.14300000   17.03800000   11.60100000
      C           7.25400000   19.60300000   11.64400000
      C          26.74400000    8.35000000   11.64400000
      C          17.58200000   12.52500000   11.92700000
      C          37.07300000    1.27200000   11.92700000
      C          14.84200000   12.47600000   11.36900000
      C          34.33300000    1.22300000   11.36900000
      H          18.99700000    1.59700000   11.73800000
      H          38.48800000   12.85000000   11.73800000
      H          14.04200000    1.05600000   11.71100000
      H          33.53200000   12.30900000   11.71100000
      H          24.70300000    9.06700000   11.62200000
      H           5.21300000   20.32000000   11.62200000
      H           8.18200000   16.32000000   11.62000000
      H          27.67300000    5.06700000   11.62000000
      H          15.03500000   10.30700000   11.28700000
      H          34.52600000   21.56000000   11.28700000
      H          17.40100000   14.69500000   11.92200000
      H          36.89200000    3.44200000   11.92200000
      H          16.93300000    5.37500000   11.61400000
      H          36.42400000   16.62800000   11.61400000
      H          16.04000000   19.74500000   11.70200000
      H          35.53100000    8.49200000   11.70200000
      H          22.45800000    5.37800000   11.64400000
      H           2.96800000   16.63100000   11.64400000
      H          10.50400000   19.98700000   11.66800000
      H          29.99400000    8.73400000   11.66800000
      H          13.05800000   15.07200000   11.53900000
      H          32.54900000    3.81900000   11.53900000
      H          13.77300000   12.49400000   11.16900000
      H          33.26400000    1.24100000   11.16900000
      H          18.59300000   12.57200000   12.56100000
      H          38.08400000    1.31900000   12.56100000
      H           7.70400000   20.59300000   11.66000000
      H          27.19500000    9.34000000   11.66000000
      H          17.96900000   21.81200000   11.77600000
      H          37.46000000   10.55900000   11.77600000
      H          15.06800000    3.34500000   11.67500000
      H          34.55900000   14.59800000   11.67500000
      H          25.18300000    4.79500000   11.58500000
      H           5.69200000   16.04800000   11.58500000
      Pt         19.49100000   11.25300000   11.75000000
      Pt         38.98100000    0.00000000   11.75000000
      O          10.14700000    3.16000000   18.12600000
      H           9.32300000    2.86700000   17.69900000
      H          10.74600000    3.35600000   17.38500000
      O          38.00000000    4.46100000   28.30900000
      H          37.94700000    5.24100000   28.88900000
      H          37.07900000    4.16100000   28.22400000
      O          31.48000000   19.72200000    9.36500000
      H          31.53800000   18.79300000    9.64900000
      H          31.32100000   19.67300000    8.40700000
      O          31.28700000    8.96600000    5.83800000
      H          31.69700000    8.14900000    5.50400000
      H          30.95300000    9.41300000    5.04100000
      O           1.33900000   20.63000000    5.43800000
      H           2.25300000   20.30200000    5.51000000
      H           1.41700000   21.44600000    4.91200000
      O          15.02600000   17.99700000   28.50600000
      H          15.28200000   17.72500000   27.60800000
      H          14.99800000   17.16700000   29.01200000
      O           7.15500000   16.43400000    2.04400000
      H           7.55200000   17.13300000    1.49700000
      H           7.02000000   16.85300000    2.91100000
      O          28.71600000   14.71100000    3.22300000
      H          28.61100000   15.20700000    4.05300000
      H          28.08500000   15.12800000    2.61100000
      O           7.33000000   21.50000000    4.21100000
      H           7.99300000   20.89500000    3.83700000
      H           7.21500000   21.19600000    5.12800000
      O          17.84400000    5.29300000   21.00600000
      H          17.67400000    5.52700000   21.93500000
      H          18.77500000    5.00900000   20.99500000
      O          11.96200000   12.47600000    1.43100000
      H          12.87400000   12.81200000    1.38000000
      H          11.72000000   12.29400000    0.50600000
      O           6.48100000    5.37600000    5.21800000
      H           7.12000000    6.11000000    5.23300000
      H           6.01800000    5.44300000    6.07100000
      O          21.06000000    1.08500000   28.05500000
      H          20.45300000    0.47800000   27.59600000
      H          21.45200000    0.54400000   28.76300000
      O          30.95500000   19.84700000   29.00100000
      H          30.11600000   19.35500000   29.01700000
      H          31.63500000   19.16000000   28.89200000
      O          32.40400000    7.74900000    8.14000000
      H          33.13800000    7.29900000    7.68600000
      H          32.68600000    8.67900000    8.18900000
      O          20.42600000    6.03000000    1.41300000
      H          21.14500000    6.60400000    1.73000000
      H          20.67900000    5.80900000    0.50000000
      O          24.59000000    8.34700000    6.04700000
      H          23.74700000    7.86400000    6.09300000
      H          24.47900000    9.08800000    6.66700000
      O          38.00200000   10.90200000   22.60100000
      H          37.75800000   11.73500000   22.16100000
      H          37.57200000   10.21100000   22.06700000
      O           5.79900000    3.54300000    0.91200000
      H           5.22100000    2.78300000    0.72800000
      H           5.69600000    3.70100000    1.86600000
      O           6.58500000   12.90200000   22.99900000
      H           7.44200000   13.34600000   22.87500000
      H           6.16700000   12.93500000   22.12100000
      O          35.21800000   18.36100000    1.84300000
      H          35.00900000   19.26600000    1.55300000
      H          35.21600000   18.41100000    2.81400000
      O           8.90500000   19.59800000   28.67700000
      H           9.56500000   18.96100000   29.00100000
      H           9.22700000   20.46100000   28.99200000
      O          28.47800000   18.70800000   18.73800000
      H          27.59600000   18.48500000   19.08300000
      H          29.07000000   18.60100000   19.50300000
      O           7.09700000   16.46200000   28.41500000
      H           6.58700000   15.87700000   29.00200000
      H           7.66100000   16.97700000   29.01700000
      O          34.66400000   15.26500000   26.79700000
      H          34.85700000   15.73700000   25.96800000
      H          35.11000000   14.40600000   26.69400000
      O          25.33200000   19.33300000    6.33600000
      H          25.91000000   19.12300000    5.58300000
      H          24.44300000   19.07400000    6.03800000
      O           7.19800000   16.00600000   19.84300000
      H           8.03500000   15.65600000   20.19400000
      H           6.77900000   15.24100000   19.41200000
      O          29.33100000   10.67100000    2.67100000
      H          28.52400000   10.87000000    2.16500000
      H          29.07400000   10.81000000    3.60000000
      O          23.45100000    4.75100000    1.61900000
      H          22.94300000    4.22300000    0.97900000
      H          22.95600000    4.66400000    2.45200000
      O          37.97600000    7.86800000   23.44600000
      H          38.00100000    6.93200000   23.18000000
      H          37.97300000    7.84300000   24.41900000
      O          36.65800000    5.04700000    3.52000000
      H          36.70600000    4.46600000    2.74100000
      H          37.44300000    5.61600000    3.44600000
      O          33.47700000    5.05000000    5.04900000
      H          33.73200000    5.98800000    5.00700000
      H          34.11500000    4.60100000    4.46700000
      O          16.46700000    8.83900000    6.49300000
      H          17.25900000    8.67400000    5.95200000
      H          15.72600000    8.75400000    5.86900000
      O           9.49900000   15.08600000    6.59700000
      H           9.09600000   15.96000000    6.45700000
      H           9.00300000   14.70800000    7.34400000
      O          32.59800000    9.08800000   29.00400000
      H          33.33500000    9.57900000   28.60000000
      H          31.80000000    9.54300000   28.68400000
      O          30.47800000    3.61700000   28.51300000
      H          30.61100000    2.78600000   29.00100000
      H          31.06100000    4.25600000   28.96000000
      O          26.47900000    6.40900000    0.56800000
      H          26.91000000    5.68500000    1.05500000
      H          25.54800000    6.13300000    0.49900000
      O          36.81000000   14.61600000   16.04800000
      H          36.78500000   14.34100000   16.98100000
      H          37.74700000   14.81500000   15.87900000
      O          25.65500000    3.24000000    0.96700000
      H          25.42700000    2.32600000    0.72100000
      H          25.72100000    3.22000000    1.93700000
      O           0.85200000   14.22700000   27.78800000
      H           0.85600000   15.15800000   28.07100000
      H           0.49800000   14.25100000   26.88200000
      O          16.79700000   14.72300000    6.16400000
      H          16.98300000   13.76800000    6.15000000
      H          17.64200000   15.13000000    6.42100000
      O          36.41100000   21.50500000   26.89200000
      H          36.07600000   20.61600000   26.68400000
      H          37.31100000   21.51700000   26.52100000
      O          14.41000000    4.67800000   26.82400000
      H          13.52700000    5.08500000   26.86300000
      H          14.28200000    3.87400000   26.29000000
      O          35.78600000   18.89000000    6.04000000
      H          36.45200000   18.40200000    5.52500000
      H          35.47900000   18.25000000    6.70500000
      O          34.39200000    8.65000000    5.20500000
      H          34.33800000    9.14600000    6.04000000
      H          35.33300000    8.69000000    4.96100000
      O          28.59600000   13.48500000    6.87900000
      H          28.48900000   14.43300000    6.68700000
      H          28.47800000   13.41900000    7.84300000
      O           3.57100000   21.50400000   26.41700000
      H           2.64100000   21.37500000   26.16100000
      H           3.55600000   21.50000000   27.39000000
      O          10.73800000    9.64800000   25.57800000
      H          11.49700000    9.04100000   25.60900000
      H          10.99500000   10.32300000   24.92600000
      O           9.72600000    1.27300000   20.08100000
      H          10.17300000    0.49800000   19.69800000
      H           9.15900000    0.90300000   20.78000000
      O          21.25100000   21.46900000   25.96500000
      H          21.47700000   21.51000000   26.91100000
      H          20.90200000   20.56900000   25.84000000
      O           2.48500000    3.41500000   22.25300000
      H           3.36500000    3.37400000   22.66600000
      H           1.86700000    3.43800000   23.00500000
      O          24.39500000    9.72400000   25.07700000
      H          25.18500000    9.32400000   24.67300000
      H          23.89500000   10.08500000   24.32300000
      O          13.06900000    9.07200000   14.66000000
      H          12.17000000    9.15700000   15.02000000
      H          12.94900000    9.12000000   13.69600000
      O          26.19400000    1.40100000   25.39300000
      H          25.29800000    1.61300000   25.70800000
      H          26.11100000    1.38300000   24.42300000
      O           8.92600000   15.48700000   23.83000000
      H           8.42200000   15.90400000   23.10900000
      H           8.27400000   15.36800000   24.54300000
      O          33.60800000   10.51700000   18.17500000
      H          33.29000000   11.37300000   18.51200000
      H          32.79600000   10.00500000   18.01400000
      O          21.02400000   10.03200000    0.91900000
      H          21.62600000   10.67200000    0.50000000
      H          21.56300000    9.23000000    1.02900000
      O          34.29800000   21.04900000    7.23300000
      H          33.90200000   20.28100000    7.68000000
      H          34.81700000   21.49100000    7.92700000
      O          19.81300000    3.82400000   14.87300000
      H          19.24600000    3.24000000   15.40700000
      H          19.72900000    4.69500000   15.29800000
      O          33.99300000   20.56900000   22.03200000
      H          34.68100000   19.88300000   21.97800000
      H          33.87100000   20.71300000   22.98700000
      O           4.03800000    3.82300000    4.08800000
      H           4.14700000    4.76500000    3.87300000
      H           4.06400000    3.79200000    5.06100000
      O          11.96300000    1.40000000   21.66700000
      H          11.82400000    1.41000000   22.63000000
      H          12.27000000    0.49700000   21.47600000
      O          25.18100000    9.68900000    0.62600000
      H          25.33700000    8.85300000    1.09900000
      H          24.21700000    9.71700000    0.49900000
      O          34.07900000    7.99500000   23.58300000
      H          33.88000000    7.04700000   23.67000000
      H          33.37700000    8.33700000   23.00300000
      O           1.46100000   12.05100000   18.62600000
      H           1.84200000   11.20800000   18.32300000
      H           0.49900000   11.92500000   18.54200000
      O           2.17700000    3.63500000   15.76300000
      H           2.92300000    4.11900000   16.15700000
      H           2.32200000    3.70800000   14.80300000
      O          29.17400000   11.07200000    9.35900000
      H          28.91000000   10.99800000   10.29200000
      H          28.36300000   10.86700000    8.86100000
      O           9.21400000    4.37600000    0.58400000
      H           8.48900000    4.06200000    1.15200000
      H           9.80500000    3.60800000    0.50000000
      O           3.81400000   11.55700000   12.58900000
      H           3.19000000   12.27800000   12.78500000
      H           3.86900000   11.54200000   11.61800000
      O          11.56000000   16.25100000    1.05100000
      H          10.76200000   16.16900000    0.50000000
      H          12.27300000   15.88500000    0.50000000
      O           0.67000000    5.84700000    8.26800000
      H           0.50700000    6.75700000    8.57200000
      H           0.50000000    5.87900000    7.31000000
      O           1.71700000    2.83400000    1.08900000
      H           1.41700000    2.12000000    0.50000000
      H           2.17900000    3.45500000    0.49900000
      O          28.06800000    1.83100000    1.58100000
      H          28.62700000    2.45900000    2.07000000
      H          28.27800000    1.99700000    0.64600000
      O          11.06900000   21.52200000   22.30400000
      H          10.98800000   20.60600000   21.98500000
      H          11.02000000   21.44600000   23.27200000
      O           4.33400000    5.79500000   20.39000000
      H           4.20500000    4.83400000   20.47100000
      H           4.57500000    5.92800000   19.45700000
      O          12.36900000    6.29700000   15.27800000
      H          11.97900000    5.40900000   15.20100000
      H          12.46700000    6.43700000   16.23600000
      O          31.60800000   10.40600000   20.46000000
      H          30.93700000   10.81400000   19.88600000
      H          31.16800000    9.61700000   20.82100000
      O          21.37900000   13.19000000   26.34400000
      H          20.65700000   13.60400000   25.84000000
      H          21.30300000   12.24200000   26.13800000
      O          28.28200000    7.55700000    2.53700000
      H          28.21300000    8.16500000    1.78100000
      H          28.46500000    8.13700000    3.29700000
      O          12.36300000    2.51600000    1.16800000
      H          13.05300000    2.67500000    0.50000000
      H          11.83900000    1.78200000    0.80300000
      O           7.84600000   11.06900000    2.09200000
      H           6.93800000   11.36900000    1.91000000
      H           7.86200000   10.91500000    3.05300000
      O           7.62800000   21.50900000   21.27200000
      H           8.33800000   21.33700000   21.91500000
      H           8.04500000   21.35800000   20.40600000
      O          27.11900000    9.13500000   18.77100000
      H          26.85900000    9.61700000   19.57500000
      H          26.27600000    8.84400000   18.38100000
      O          26.10200000   14.47800000   21.82100000
      H          27.06800000   14.41800000   21.72500000
      H          25.96700000   14.73000000   22.75100000
      O          13.81200000   20.96500000    1.65300000
      H          14.18100000   20.30800000    2.26800000
      H          12.93700000   20.61000000    1.41700000
      O          13.50100000   14.07700000   17.28000000
      H          14.13500000   13.82100000   17.97300000
      H          13.96500000   13.89000000   16.44600000
      O          13.53300000   19.71100000   24.34100000
      H          13.39500000   20.67200000   24.41500000
      H          12.64500000   19.35200000   24.17000000
      O          35.48800000   12.92200000   23.86300000
      H          35.73400000   13.84200000   24.06000000
      H          34.85400000   12.68700000   24.56300000
      O          21.31000000   12.59700000    3.56500000
      H          21.68900000   13.36600000    3.10500000
      H          21.05100000   11.99000000    2.85000000
      O          21.26000000    9.60900000   21.06200000
      H          20.44000000    9.23800000   20.69100000
      H          21.20800000   10.55900000   20.85900000
      O          36.48800000   15.03900000    8.21600000
      H          35.70500000   14.46600000    8.29000000
      H          37.08200000   14.72700000    8.92100000
      O          13.50200000    8.21800000    0.73400000
      H          14.21800000    8.87700000    0.71500000
      H          12.75300000    8.68700000    1.14000000
      O          29.81800000   21.32300000   10.90100000
      H          29.76900000   20.78200000   11.70700000
      H          28.89000000   21.52000000   10.68500000
      O           3.15900000   11.44600000    5.99600000
      H           2.49700000   10.73500000    5.93700000
      H           3.32200000   11.54600000    6.95000000
      O          17.55500000   17.20400000    3.82900000
      H          16.98300000   17.50000000    3.10000000
      H          17.35100000   16.25800000    3.92900000
      O          18.63200000    1.48500000    1.17300000
      H          19.30700000    1.90800000    0.61400000
      H          18.62100000    2.02000000    1.98600000
      O          18.17000000   11.95900000    0.83500000
      H          18.53700000   11.94200000    1.73600000
      H          18.39300000   12.84500000    0.50000000
      O          14.82800000   17.86600000    1.18200000
      H          15.66100000   18.17000000    0.78100000
      H          14.78000000   16.92200000    0.95100000
      O          35.87300000    0.49800000   24.21400000
      H          34.91400000    0.58300000   24.07700000
      H          36.13600000    1.34700000   24.61100000
      O          26.06500000   17.61000000   14.22800000
      H          26.86100000   18.08800000   14.51800000
      H          26.03000000   17.76100000   13.26700000
      O          26.47200000   12.26400000    3.35300000
      H          27.07300000   12.65200000    4.01300000
      H          26.58500000   12.82400000    2.56600000
      O          20.43500000    1.10100000   20.07900000
      H          21.04600000    0.50200000   20.54200000
      H          20.27900000    0.67100000   19.22000000
      O          14.68800000    7.42200000    8.03900000
      H          14.24900000    6.72100000    7.52700000
      H          14.40600000    7.26300000    8.95700000
      O           0.87200000   10.84200000   28.34100000
      H           0.73900000   11.48400000   27.62200000
      H           1.54700000   11.25200000   28.90900000
      O          24.56800000   21.51800000   14.94100000
      H          25.52800000   21.50500000   15.09500000
      H          24.46200000   21.16400000   14.04100000
      O          13.02000000    4.69600000   22.75200000
      H          12.90000000    4.05300000   22.03100000
      H          13.00600000    5.56200000   22.30900000
      O          22.40500000    1.85200000    2.26300000
      H          21.56700000    2.29000000    2.49200000
      H          22.91100000    1.84800000    3.09400000
      O          25.33700000   13.64500000    7.50300000
      H          25.89000000   13.01800000    7.00700000
      H          25.92000000   14.40800000    7.66100000
      O          33.23600000    4.41700000    0.94500000
      H          32.42400000    4.11800000    0.50000000
      H          33.45400000    5.26000000    0.50900000
      O          20.88000000    7.46000000   22.73900000
      H          20.12000000    7.85200000   23.20400000
      H          20.47900000    6.86800000   22.07900000
      O          21.92200000    9.91700000   28.74700000
      H          21.98800000   10.84400000   29.03700000
      H          21.69900000    9.97500000   27.80200000
      O          20.86300000   18.96900000   18.85300000
      H          20.50200000   18.37300000   19.53300000
      H          20.17600000   18.99200000   18.16400000
      O          32.10200000   20.90200000   16.20000000
      H          32.35900000   21.50000000   16.92300000
      H          31.88200000   21.49700000   15.46100000
      O          19.93400000    4.01800000   28.55400000
      H          19.92200000    4.89400000   28.97600000
      H          20.03800000    4.20800000   27.60600000
      O           6.61400000    3.86900000   28.19900000
      H           5.98100000    3.19700000   28.50700000
      H           7.06300000    4.16600000   29.00900000
      O          18.33800000    8.59900000    2.00200000
      H          19.22200000    8.48900000    2.39300000
      H          18.51000000    8.93500000    1.10500000
      O          25.19300000   18.41600000    2.90900000
      H          25.24800000   17.65100000    2.31000000
      H          24.36800000   18.27400000    3.40600000
      O          14.71600000   20.60300000   26.85500000
      H          14.37200000   21.51300000   26.84400000
      H          13.93500000   20.05200000   27.03900000
      O          28.82700000   21.50400000   16.53000000
      H          29.04700000   20.81100000   15.88300000
      H          29.56800000   21.48900000   17.16000000
      O          37.57300000    4.73700000   16.08900000
      H          37.91800000    3.86500000   16.34600000
      H          38.00100000    5.35700000   16.70500000
      O          17.10200000    3.33700000   25.81300000
      H          17.90900000    2.83000000   25.61600000
      H          16.64200000    3.40000000   24.95800000
      O          32.44400000   17.97400000    2.72400000
      H          32.20300000   18.39100000    1.87800000
      H          31.96800000   18.49500000    3.39400000
      O          36.42400000    6.02700000   25.81500000
      H          35.54800000    6.14900000   26.22200000
      H          37.05100000    6.30700000   26.50500000
      O           6.20000000    8.14300000    0.75800000
      H           6.61500000    7.95800000    1.61900000
      H           6.55500000    9.01200000    0.50100000
      O           8.60600000    5.03600000   14.01100000
      H           9.40700000    4.75100000   14.48400000
      H           8.42800000    4.31700000   13.38100000
      O          37.56700000   16.04700000   28.17000000
      H          37.05300000   16.16700000   28.98700000