 # Version information for this restart file 
 # current date 2025-07-22 17:39:09.848
 # current working dir /home/zhoufh/zfh/tq/aimd/cof-3/plu-5
 # Program compiled at                              Fri Dec 13 16:20:40 CST 2024
 # Program compiled on                                     localhost.localdomain
 # Program compiled for                                                    local
 # Source code revision number                                       git:6712648
 &GLOBAL
   PRINT_LEVEL MEDIUM
   PROJECT_NAME "cp2k"
   RUN_TYPE MD
 &END GLOBAL
 &MOTION
   &MD
     ENSEMBLE NVT
     STEPS 2000
     TIMESTEP  9.9999999999999978E-001
     STEP_START_VAL 1000
     TIME_START_VAL  2.1989999999999386E+003
     ECONS_START_VAL -1.6536634235111858E+004
     TEMPERATURE  2.9814999999999998E+002
     &THERMOSTAT
       TYPE NOSE
     &END THERMOSTAT
     &AVERAGES T
       &RESTART_AVERAGES
         ITIMES_START 1
         AVECPU  4.6981620696254390E+002
         AVEHUGONIOT  0.0000000000000000E+000
         AVETEMP_BARO  0.0000000000000000E+000
         AVEPOT -1.6545890503727620E+004
         AVEKIN  5.5708194107823088E+000
         AVETEMP  6.5921811428543094E+002
         AVEKIN_QM  0.0000000000000000E+000
         AVETEMP_QM  0.0000000000000000E+000
         AVEVOL  1.7761071073828582E+005
         AVECELL_A  7.3663414386015376E+001
         AVECELL_B  4.2530176346724332E+001
         AVECELL_C  5.6691783986569206E+001
         AVEALPHA  9.0000000000000000E+001
         AVEBETA  9.0000000000000000E+001
         AVEGAMMA  9.0000000000000000E+001
         AVE_ECONS -4.6086693572120902E+002
         AVE_PRESS  0.0000000000000000E+000
         AVE_PXX  0.0000000000000000E+000
       &END RESTART_AVERAGES
     &END AVERAGES
     &PRINT
       &PROGRAM_RUN_INFO SILENT
         &EACH
           MD 1
         &END EACH
       &END PROGRAM_RUN_INFO
     &END PRINT
   &END MD
   &FREE_ENERGY
     &METADYN
       USE_PLUMED T
       PLUMED_INPUT_FILE "plumed.dat"
       MIN_DISP  0.0000000000000000E+000
       OLD_HILL_NUMBER -1
       OLD_HILL_STEP -1
       STEP_START_VAL 0
       NHILLS_START_VAL 0
     &END METADYN
   &END FREE_ENERGY
   &CONSTRAINT
     &FIXED_ATOMS
       COMPONENTS_TO_FIX XYZ
       LIST 1..396
     &END FIXED_ATOMS
   &END CONSTRAINT
   &PRINT
     &TRAJECTORY SILENT
       FORMAT XMOL
       &EACH
         MD 1
       &END EACH
     &END TRAJECTORY
     &VELOCITIES SILENT
       &EACH
         MD 0
       &END EACH
     &END VELOCITIES
     &FORCES SILENT
       &EACH
         MD 1
       &END EACH
     &END FORCES
     &RESTART SILENT
       BACKUP_COPIES 5
       &EACH
         MD 100
       &END EACH
     &END RESTART
     &RESTART_HISTORY OFF
     &END RESTART_HISTORY
   &END PRINT
 &END MOTION
 &FORCE_EVAL
   METHOD QS
   &DFT
     BASIS_SET_FILE_NAME BASIS_MOLOPT
     POTENTIAL_FILE_NAME POTENTIAL
     MULTIPLICITY 1
     CHARGE 0
     &SCF
       MAX_SCF 25
       EPS_SCF  1.0000000000000001E-005
       &OT T
         ALGORITHM STRICT
         MINIMIZER DIIS
         LINESEARCH 2PNT
         PRECONDITIONER FULL_KINETIC
       &END OT
       &OUTER_SCF T
         EPS_SCF  1.0000000000000001E-005
         MAX_SCF 20
       &END OUTER_SCF
       &PRINT
         &RESTART OFF
         &END RESTART
       &END PRINT
     &END SCF
     &QS
       EPS_DEFAULT  1.0000000000000000E-010
       EXTRAPOLATION ASPC
       EXTRAPOLATION_ORDER 3
     &END QS
     &MGRID
       CUTOFF  3.0000000000000000E+002
       REL_CUTOFF  4.0000000000000000E+001
     &END MGRID
     &XC
       DENSITY_CUTOFF  1.0000000000000000E-010
       GRADIENT_CUTOFF  1.0000000000000000E-010
       TAU_CUTOFF  1.0000000000000000E-010
       &XC_FUNCTIONAL NO_SHORTCUT
         &PBE T
         &END PBE
       &END XC_FUNCTIONAL
     &END XC
     &POISSON
       POISSON_SOLVER PERIODIC
       PERIODIC XYZ
     &END POISSON
   &END DFT
   &SUBSYS
     &CELL
       A  3.8981000000000002E+001  0.0000000000000000E+000  0.0000000000000000E+000
       B  0.0000000000000000E+000  2.2506000000000014E+001  0.0000000000000000E+000
       C  0.0000000000000000E+000  0.0000000000000000E+000  3.0000000000000011E+001
       PERIODIC XYZ
       MULTIPLE_UNIT_CELL 1 1 1
     &END CELL
     &COORD
       O  1.4271000000000001E+001  2.0079999999999998E+001  1.4350000000000001E+000
       O  1.4271000000000001E+001  2.0079999999999998E+001  4.7020000000000000E+000
       O  1.4271000000000001E+001  2.0079999999999998E+001  7.9680000000000035E+000
       O  3.3762000000000000E+001  8.8270000000000000E+000  1.4350000000000001E+000
       O  3.3762000000000000E+001  8.8270000000000000E+000  4.7020000000000000E+000
       O  3.3762000000000000E+001  8.8270000000000000E+000  7.9680000000000035E+000
       O  5.1959999999999997E+000  1.3689000000000000E+001  1.4330000000000001E+000
       O  5.1959999999999997E+000  1.3689000000000000E+001  4.6989999999999998E+000
       O  5.1959999999999997E+000  1.3689000000000000E+001  7.9660000000000037E+000
       O  2.4687000000000008E+001  2.4360000000000004E+000  1.4330000000000001E+000
       O  2.4687000000000008E+001  2.4360000000000004E+000  4.6989999999999998E+000
       O  2.4687000000000008E+001  2.4360000000000004E+000  7.9660000000000037E+000
       O  1.4450000000000006E+001  2.3380000000000001E+000  1.4399999999999999E+000
       O  1.4450000000000006E+001  2.3380000000000001E+000  4.7069999999999999E+000
       O  1.4450000000000006E+001  2.3380000000000001E+000  7.9730000000000025E+000
       O  3.3941000000000003E+001  1.3591000000000003E+001  1.4399999999999999E+000
       O  3.3941000000000003E+001  1.3591000000000003E+001  4.7069999999999999E+000
       O  3.3941000000000003E+001  1.3591000000000003E+001  7.9730000000000025E+000
       O  5.0280000000000005E+000  8.9239999999999995E+000  1.4260000000000006E+000
       O  5.0280000000000005E+000  8.9239999999999995E+000  4.6930000000000023E+000
       O  5.0280000000000005E+000  8.9239999999999995E+000  7.9589999999999996E+000
       O  2.4518999999999998E+001  2.0177000000000014E+001  1.4260000000000006E+000
       O  2.4518999999999998E+001  2.0177000000000014E+001  4.6930000000000023E+000
       O  2.4518999999999998E+001  2.0177000000000014E+001  7.9589999999999996E+000
       O  1.0234999999999999E+001  1.1300000000000000E-001  1.4159999999999999E+000
       O  1.0234999999999999E+001  1.1300000000000000E-001  4.6829999999999998E+000
       O  1.0234999999999999E+001  1.1300000000000000E-001  7.9489999999999998E+000
       O  2.9725999999999999E+001  1.1366000000000001E+001  1.4159999999999999E+000
       O  2.9725999999999999E+001  1.1366000000000001E+001  4.6829999999999998E+000
       O  2.9725999999999999E+001  1.1366000000000001E+001  7.9489999999999998E+000
       O  9.2379999999999995E+000  1.1164000000000007E+001  1.4510000000000001E+000
       O  9.2379999999999995E+000  1.1164000000000007E+001  4.7169999999999996E+000
       O  9.2379999999999995E+000  1.1164000000000007E+001  7.9840000000000035E+000
       O  2.8728999999999999E+001  2.2417000000000002E+001  1.4510000000000001E+000
       O  2.8728999999999999E+001  2.2417000000000002E+001  4.7169999999999996E+000
       O  2.8728999999999999E+001  2.2417000000000002E+001  7.9840000000000035E+000
       N  1.0280000000000005E+001  1.9649000000000001E+001  1.4310000000000000E+000
       N  1.0280000000000005E+001  1.9649000000000001E+001  4.6980000000000013E+000
       N  1.0280000000000005E+001  1.9649000000000001E+001  7.9640000000000004E+000
       N  2.9771000000000008E+001  8.3960000000000008E+000  1.4310000000000000E+000
       N  2.9771000000000008E+001  8.3960000000000008E+000  4.6980000000000013E+000
       N  2.9771000000000008E+001  8.3960000000000008E+000  7.9640000000000004E+000
       N  9.1859999999999999E+000  1.4124000000000001E+001  1.4359999999999999E+000
       N  9.1859999999999999E+000  1.4124000000000001E+001  4.7020000000000000E+000
       N  9.1859999999999999E+000  1.4124000000000001E+001  7.9690000000000003E+000
       N  2.8677000000000000E+001  2.8710000000000000E+000  1.4359999999999999E+000
       N  2.8677000000000000E+001  2.8710000000000000E+000  4.7020000000000000E+000
       N  2.8677000000000000E+001  2.8710000000000000E+000  7.9690000000000003E+000
       N  1.6815999999999999E+001  2.1600000000000012E+001  1.4339999999999999E+000
       N  1.6815999999999999E+001  2.1600000000000012E+001  4.7000000000000002E+000
       N  1.6815999999999999E+001  2.1600000000000012E+001  7.9669999999999996E+000
       N  3.6307000000000023E+001  1.0347000000000001E+001  1.4339999999999999E+000
       N  3.6307000000000023E+001  1.0347000000000001E+001  4.7000000000000002E+000
       N  3.6307000000000023E+001  1.0347000000000001E+001  7.9669999999999996E+000
       N  2.6570000000000009E+000  1.2164000000000000E+001  1.4330000000000001E+000
       N  2.6570000000000009E+000  1.2164000000000000E+001  4.7000000000000002E+000
       N  2.6570000000000009E+000  1.2164000000000000E+001  7.9660000000000037E+000
       N  2.2146999999999998E+001  9.1100000000000003E-001  1.4330000000000001E+000
       N  2.2146999999999998E+001  9.1100000000000003E-001  4.7000000000000002E+000
       N  2.2146999999999998E+001  9.1100000000000003E-001  7.9660000000000037E+000
       N  1.1868000000000000E+001  3.7840000000000016E+000  1.4490000000000001E+000
       N  1.1868000000000000E+001  3.7840000000000016E+000  4.7160000000000002E+000
       N  1.1868000000000000E+001  3.7840000000000016E+000  7.9820000000000002E+000
       N  3.1358000000000001E+001  1.5037000000000008E+001  1.4490000000000001E+000
       N  3.1358000000000001E+001  1.5037000000000008E+001  4.7160000000000002E+000
       N  3.1358000000000001E+001  1.5037000000000008E+001  7.9820000000000002E+000
       N  7.6260000000000003E+000  7.4889999999999999E+000  1.4170000000000009E+000
       N  7.6260000000000003E+000  7.4889999999999999E+000  4.6840000000000002E+000
       N  7.6260000000000003E+000  7.4889999999999999E+000  7.9500000000000037E+000
       N  2.7117000000000001E+001  1.8742000000000015E+001  1.4170000000000009E+000
       N  2.7117000000000001E+001  1.8742000000000015E+001  4.6840000000000002E+000
       N  2.7117000000000001E+001  1.8742000000000015E+001  7.9500000000000037E+000
       C  1.3669000000000004E+001  2.1236000000000011E+001  1.4339999999999999E+000
       C  1.3669000000000004E+001  2.1236000000000011E+001  4.7000000000000002E+000
       C  1.3669000000000004E+001  2.1236000000000011E+001  7.9669999999999996E+000
       C  3.3159999999999997E+001  9.9830000000000005E+000  1.4339999999999999E+000
       C  3.3159999999999997E+001  9.9830000000000005E+000  4.7000000000000002E+000
       C  3.3159999999999997E+001  9.9830000000000005E+000  7.9669999999999996E+000
       C  5.8000000000000016E+000  1.2532999999999999E+001  1.4339999999999999E+000
       C  5.8000000000000016E+000  1.2532999999999999E+001  4.7000000000000002E+000
       C  5.8000000000000016E+000  1.2532999999999999E+001  7.9669999999999996E+000
       C  2.5290000000000006E+001  1.2800000000000000E+000  1.4339999999999999E+000
       C  2.5290000000000006E+001  1.2800000000000000E+000  4.7000000000000002E+000
       C  2.5290000000000006E+001  1.2800000000000000E+000  7.9669999999999996E+000
       C  1.3749000000000001E+001  1.2380000000000000E+000  1.4370000000000003E+000
       C  1.3749000000000001E+001  1.2380000000000000E+000  4.7039999999999997E+000
       C  1.3749000000000001E+001  1.2380000000000000E+000  7.9699999999999998E+000
       C  3.3240000000000002E+001  1.2491000000000000E+001  1.4370000000000003E+000
       C  3.3240000000000002E+001  1.2491000000000000E+001  4.7039999999999997E+000
       C  3.3240000000000002E+001  1.2491000000000000E+001  7.9699999999999998E+000
       C  5.7270000000000003E+000  1.0025000000000002E+001  1.4300000000000008E+000
       C  5.7270000000000003E+000  1.0025000000000002E+001  4.6959999999999997E+000
       C  5.7270000000000003E+000  1.0025000000000002E+001  7.9630000000000036E+000
       C  2.5218000000000011E+001  2.1278000000000013E+001  1.4300000000000008E+000
       C  2.5218000000000011E+001  2.1278000000000013E+001  4.6959999999999997E+000
       C  2.5218000000000011E+001  2.1278000000000013E+001  7.9630000000000036E+000
       C  1.1537000000000001E+001  5.3999999999999999E-002  1.4270000000000000E+000
       C  1.1537000000000001E+001  5.3999999999999999E-002  4.6940000000000000E+000
       C  1.1537000000000001E+001  5.3999999999999999E-002  7.9600000000000026E+000
       C  3.1028000000000002E+001  1.1307000000000000E+001  1.4270000000000000E+000
       C  3.1028000000000002E+001  1.1307000000000000E+001  4.6940000000000000E+000
       C  3.1028000000000002E+001  1.1307000000000000E+001  7.9600000000000026E+000
       C  7.9349999999999996E+000  1.1217000000000001E+001  1.4399999999999999E+000
       C  7.9349999999999996E+000  1.1217000000000001E+001  4.7060000000000022E+000
       C  7.9349999999999996E+000  1.1217000000000001E+001  7.9730000000000025E+000
       C  2.7425999999999998E+001  2.2469999999999999E+001  1.4399999999999999E+000
       C  2.7425999999999998E+001  2.2469999999999999E+001  4.7060000000000022E+000
       C  2.7425999999999998E+001  2.2469999999999999E+001  7.9730000000000025E+000
       C  1.2214000000000006E+001  2.1286000000000001E+001  1.4310000000000000E+000
       C  1.2214000000000006E+001  2.1286000000000001E+001  4.6970000000000001E+000
       C  1.2214000000000006E+001  2.1286000000000001E+001  7.9640000000000004E+000
       C  3.1705000000000009E+001  1.0032999999999999E+001  1.4310000000000000E+000
       C  3.1705000000000009E+001  1.0032999999999999E+001  4.6970000000000001E+000
       C  3.1705000000000009E+001  1.0032999999999999E+001  7.9640000000000004E+000
       C  7.2539999999999996E+000  1.2487000000000000E+001  1.4359999999999999E+000
       C  7.2539999999999996E+000  1.2487000000000000E+001  4.7030000000000003E+000
       C  7.2539999999999996E+000  1.2487000000000000E+001  7.9690000000000003E+000
       C  2.6744000000000000E+001  1.2340000000000000E+000  1.4359999999999999E+000
       C  2.6744000000000000E+001  1.2340000000000000E+000  4.7030000000000003E+000
       C  2.6744000000000000E+001  1.2340000000000000E+000  7.9690000000000003E+000
       C  1.4433000000000002E+001  2.2460000000000001E+001  1.4350000000000001E+000
       C  1.4433000000000002E+001  2.2460000000000001E+001  4.7010000000000032E+000
       C  1.4433000000000002E+001  2.2460000000000001E+001  7.9680000000000035E+000
       C  3.3924000000000007E+001  1.1207000000000001E+001  1.4350000000000001E+000
       C  3.3924000000000007E+001  1.1207000000000001E+001  4.7010000000000032E+000
       C  3.3924000000000007E+001  1.1207000000000001E+001  7.9680000000000035E+000
       C  5.0400000000000000E+000  1.1308000000000000E+001  1.4319999999999999E+000
       C  5.0400000000000000E+000  1.1308000000000000E+001  4.6989999999999998E+000
       C  5.0400000000000000E+000  1.1308000000000000E+001  7.9650000000000007E+000
       C  2.4530000000000001E+001  5.5000000000000021E-002  1.4319999999999999E+000
       C  2.4530000000000001E+001  5.5000000000000021E-002  4.6989999999999998E+000
       C  2.4530000000000001E+001  5.5000000000000021E-002  7.9650000000000007E+000
       C  1.2308999999999999E+001  1.2880000000000000E+000  1.4359999999999999E+000
       C  1.2308999999999999E+001  1.2880000000000000E+000  4.7020000000000000E+000
       C  1.2308999999999999E+001  1.2880000000000000E+000  7.9690000000000003E+000
       C  3.1800000000000015E+001  1.2541000000000004E+001  1.4359999999999999E+000
       C  3.1800000000000015E+001  1.2541000000000004E+001  4.7020000000000000E+000
       C  3.1800000000000015E+001  1.2541000000000004E+001  7.9690000000000003E+000
       C  7.1689999999999996E+000  9.9800000000000004E+000  1.4310000000000000E+000
       C  7.1689999999999996E+000  9.9800000000000004E+000  4.6980000000000013E+000
       C  7.1689999999999996E+000  9.9800000000000004E+000  7.9640000000000004E+000
       C  2.6658999999999999E+001  2.1233000000000001E+001  1.4310000000000000E+000
       C  2.6658999999999999E+001  2.1233000000000001E+001  4.6980000000000013E+000
       C  2.6658999999999999E+001  2.1233000000000001E+001  7.9640000000000004E+000
       C  1.1586000000000000E+001  2.0000000000000014E+001  1.4310000000000000E+000
       C  1.1586000000000000E+001  2.0000000000000014E+001  4.6980000000000013E+000
       C  1.1586000000000000E+001  2.0000000000000014E+001  7.9640000000000004E+000
       C  3.1076000000000001E+001  8.7470000000000070E+000  1.4310000000000000E+000
       C  3.1076000000000001E+001  8.7470000000000070E+000  4.6980000000000013E+000
       C  3.1076000000000001E+001  8.7470000000000070E+000  7.9640000000000004E+000
       C  7.8810000000000002E+000  1.3774000000000006E+001  1.4359999999999999E+000
       C  7.8810000000000002E+000  1.3774000000000006E+001  4.7030000000000003E+000
       C  7.8810000000000002E+000  1.3774000000000006E+001  7.9690000000000003E+000
       C  2.7372000000000014E+001  2.5209999999999999E+000  1.4359999999999999E+000
       C  2.7372000000000014E+001  2.5209999999999999E+000  4.7030000000000003E+000
       C  2.7372000000000014E+001  2.5209999999999999E+000  7.9690000000000003E+000
       C  1.5861000000000001E+001  5.1000000000000024E-002  1.4350000000000001E+000
       C  1.5861000000000001E+001  5.1000000000000024E-002  4.7010000000000032E+000
       C  1.5861000000000001E+001  5.1000000000000024E-002  7.9680000000000035E+000
       C  3.5351999999999997E+001  1.1304000000000004E+001  1.4350000000000001E+000
       C  3.5351999999999997E+001  1.1304000000000004E+001  4.7010000000000032E+000
       C  3.5351999999999997E+001  1.1304000000000004E+001  7.9680000000000035E+000
       C  3.6120000000000001E+000  1.1208000000000000E+001  1.4319999999999999E+000
       C  3.6120000000000001E+000  1.1208000000000000E+001  4.6989999999999998E+000
       C  3.6120000000000001E+000  1.1208000000000000E+001  7.9650000000000007E+000
       C  2.3102000000000000E+001  2.2460999999999999E+001  1.4319999999999999E+000
       C  2.3102000000000000E+001  2.2460999999999999E+001  4.6989999999999998E+000
       C  2.3102000000000000E+001  2.2460999999999999E+001  7.9650000000000007E+000
       C  1.1513999999999999E+001  2.4790000000000010E+000  1.4390000000000005E+000
       C  1.1513999999999999E+001  2.4790000000000010E+000  4.7050000000000001E+000
       C  1.1513999999999999E+001  2.4790000000000010E+000  7.9720000000000004E+000
       C  3.1004999999999999E+001  1.3732000000000006E+001  1.4390000000000005E+000
       C  3.1004999999999999E+001  1.3732000000000006E+001  4.7050000000000001E+000
       C  3.1004999999999999E+001  1.3732000000000006E+001  7.9720000000000004E+000
       C  7.9730000000000025E+000  8.7959999999999994E+000  1.4280000000000008E+000
       C  7.9730000000000025E+000  8.7959999999999994E+000  4.6950000000000003E+000
       C  7.9730000000000025E+000  8.7959999999999994E+000  7.9610000000000003E+000
       C  2.7464000000000013E+001  2.0048999999999999E+001  1.4280000000000008E+000
       C  2.7464000000000013E+001  2.0048999999999999E+001  4.6950000000000003E+000
       C  2.7464000000000013E+001  2.0048999999999999E+001  7.9610000000000003E+000
       C  9.9489999999999998E+000  1.8260000000000002E+001  1.4330000000000001E+000
       C  9.9489999999999998E+000  1.8260000000000002E+001  4.6989999999999998E+000
       C  9.9489999999999998E+000  1.8260000000000002E+001  7.9660000000000037E+000
       C  2.9440000000000015E+001  7.0069999999999997E+000  1.4330000000000001E+000
       C  2.9440000000000015E+001  7.0069999999999997E+000  4.6989999999999998E+000
       C  2.9440000000000015E+001  7.0069999999999997E+000  7.9660000000000037E+000
       C  9.5169999999999995E+000  1.5512000000000000E+001  1.4339999999999999E+000
       C  9.5169999999999995E+000  1.5512000000000000E+001  4.7010000000000032E+000
       C  9.5169999999999995E+000  1.5512000000000000E+001  7.9669999999999996E+000
       C  2.9007999999999999E+001  4.2590000000000030E+000  1.4339999999999999E+000
       C  2.9007999999999999E+001  4.2590000000000030E+000  4.7010000000000032E+000
       C  2.9007999999999999E+001  4.2590000000000030E+000  7.9669999999999996E+000
       C  1.8184000000000001E+001  2.2007000000000016E+001  1.4339999999999999E+000
       C  1.8184000000000001E+001  2.2007000000000016E+001  4.7000000000000002E+000
       C  1.8184000000000001E+001  2.2007000000000016E+001  7.9669999999999996E+000
       C  3.7674999999999997E+001  1.0754000000000000E+001  1.4339999999999999E+000
       C  3.7674999999999997E+001  1.0754000000000000E+001  4.7000000000000002E+000
       C  3.7674999999999997E+001  1.0754000000000000E+001  7.9669999999999996E+000
       C  1.2890000000000008E+000  1.1757000000000007E+001  1.4330000000000001E+000
       C  1.2890000000000008E+000  1.1757000000000007E+001  4.7000000000000002E+000
       C  1.2890000000000008E+000  1.1757000000000007E+001  7.9660000000000037E+000
       C  2.0780000000000015E+001  5.0400000000000000E-001  1.4330000000000001E+000
       C  2.0780000000000015E+001  5.0400000000000000E-001  4.7000000000000002E+000
       C  2.0780000000000015E+001  5.0400000000000000E-001  7.9660000000000037E+000
       C  1.0832000000000008E+001  4.7670000000000003E+000  1.4419999999999999E+000
       C  1.0832000000000008E+001  4.7670000000000003E+000  4.7089999999999996E+000
       C  1.0832000000000008E+001  4.7670000000000003E+000  7.9749999999999996E+000
       C  3.0323000000000015E+001  1.6020000000000000E+001  1.4419999999999999E+000
       C  3.0323000000000015E+001  1.6020000000000000E+001  4.7089999999999996E+000
       C  3.0323000000000015E+001  1.6020000000000000E+001  7.9749999999999996E+000
       C  8.6660000000000004E+000  6.5120000000000005E+000  1.4240000000000002E+000
       C  8.6660000000000004E+000  6.5120000000000005E+000  4.6909999999999998E+000
       C  8.6660000000000004E+000  6.5120000000000005E+000  7.9569999999999999E+000
       C  2.8155999999999999E+001  1.7765000000000001E+001  1.4240000000000002E+000
       C  2.8155999999999999E+001  1.7765000000000001E+001  4.6909999999999998E+000
       C  2.8155999999999999E+001  1.7765000000000001E+001  7.9569999999999999E+000
       C  1.1079000000000001E+001  1.7400000000000013E+001  1.4339999999999999E+000
       C  1.1079000000000001E+001  1.7400000000000013E+001  4.7000000000000002E+000
       C  1.1079000000000001E+001  1.7400000000000013E+001  7.9669999999999996E+000
       C  3.0568999999999999E+001  6.1470000000000002E+000  1.4339999999999999E+000
       C  3.0568999999999999E+001  6.1470000000000002E+000  4.7000000000000002E+000
       C  3.0568999999999999E+001  6.1470000000000002E+000  7.9669999999999996E+000
       C  8.3870000000000005E+000  1.6372000000000000E+001  1.4339999999999999E+000
       C  8.3870000000000005E+000  1.6372000000000000E+001  4.7000000000000002E+000
       C  8.3870000000000005E+000  1.6372000000000000E+001  7.9669999999999996E+000
       C  2.7878000000000004E+001  5.1190000000000007E+000  1.4339999999999999E+000
       C  2.7878000000000004E+001  5.1190000000000007E+000  4.7000000000000002E+000
       C  2.7878000000000004E+001  5.1190000000000007E+000  7.9669999999999996E+000
       C  1.8364000000000001E+001  9.0900000000000047E-001  1.4339999999999999E+000
       C  1.8364000000000001E+001  9.0900000000000047E-001  4.7010000000000032E+000
       C  1.8364000000000001E+001  9.0900000000000047E-001  7.9669999999999996E+000
       C  3.7854999999999997E+001  1.2162000000000006E+001  1.4339999999999999E+000
       C  3.7854999999999997E+001  1.2162000000000006E+001  4.7010000000000032E+000
       C  3.7854999999999997E+001  1.2162000000000006E+001  7.9669999999999996E+000
       C  1.1090000000000009E+000  1.0349000000000000E+001  1.4330000000000001E+000
       C  1.1090000000000009E+000  1.0349000000000000E+001  4.6989999999999998E+000
       C  1.1090000000000009E+000  1.0349000000000000E+001  7.9660000000000037E+000
       C  2.0600000000000001E+001  2.1602000000000000E+001  1.4330000000000001E+000
       C  2.0600000000000001E+001  2.1602000000000000E+001  4.6989999999999998E+000
       C  2.0600000000000001E+001  2.1602000000000000E+001  7.9660000000000037E+000
       C  9.5229999999999997E+000  4.2180000000000000E+000  1.4199999999999999E+000
       C  9.5229999999999997E+000  4.2180000000000000E+000  4.6870000000000003E+000
       C  9.5229999999999997E+000  4.2180000000000000E+000  7.9530000000000038E+000
       C  2.9014000000000014E+001  1.5471000000000000E+001  1.4199999999999999E+000
       C  2.9014000000000014E+001  1.5471000000000000E+001  4.6870000000000003E+000
       C  2.9014000000000014E+001  1.5471000000000000E+001  7.9530000000000038E+000
       C  9.9749999999999996E+000  7.0610000000000035E+000  1.4470000000000001E+000
       C  9.9749999999999996E+000  7.0610000000000035E+000  4.7130000000000001E+000
       C  9.9749999999999996E+000  7.0610000000000035E+000  7.9800000000000004E+000
       C  2.9465000000000000E+001  1.8314000000000007E+001  1.4470000000000001E+000
       C  2.9465000000000000E+001  1.8314000000000007E+001  4.7130000000000001E+000
       C  2.9465000000000000E+001  1.8314000000000007E+001  7.9800000000000004E+000
       C  8.6340000000000003E+000  1.7756000000000000E+001  1.4330000000000001E+000
       C  8.6340000000000003E+000  1.7756000000000000E+001  4.7000000000000002E+000
       C  8.6340000000000003E+000  1.7756000000000000E+001  7.9660000000000037E+000
       C  2.8125000000000000E+001  6.5030000000000001E+000  1.4330000000000001E+000
       C  2.8125000000000000E+001  6.5030000000000001E+000  4.7000000000000002E+000
       C  2.8125000000000000E+001  6.5030000000000001E+000  7.9660000000000037E+000
       C  1.0832000000000008E+001  1.6015999999999998E+001  1.4339999999999999E+000
       C  1.0832000000000008E+001  1.6015999999999998E+001  4.7010000000000032E+000
       C  1.0832000000000008E+001  1.6015999999999998E+001  7.9669999999999996E+000
       C  3.0323000000000015E+001  4.7630000000000017E+000  1.4339999999999999E+000
       C  3.0323000000000015E+001  4.7630000000000017E+000  4.7010000000000032E+000
       C  3.0323000000000015E+001  4.7630000000000017E+000  7.9669999999999996E+000
       C  1.9279000000000000E+001  2.1121000000000006E+001  1.4330000000000001E+000
       C  1.9279000000000000E+001  2.1121000000000006E+001  4.7000000000000002E+000
       C  1.9279000000000000E+001  2.1121000000000006E+001  7.9660000000000037E+000
       C  3.8768999999999998E+001  9.8680000000000003E+000  1.4330000000000001E+000
       C  3.8768999999999998E+001  9.8680000000000003E+000  4.7000000000000002E+000
       C  3.8768999999999998E+001  9.8680000000000003E+000  7.9660000000000037E+000
       C  1.9400000000000003E-001  1.2641999999999999E+001  1.4339999999999999E+000
       C  1.9400000000000003E-001  1.2641999999999999E+001  4.7000000000000002E+000
       C  1.9400000000000003E-001  1.2641999999999999E+001  7.9669999999999996E+000
       C  1.9684999999999999E+001  1.3890000000000009E+000  1.4339999999999999E+000
       C  1.9684999999999999E+001  1.3890000000000009E+000  4.7000000000000002E+000
       C  1.9684999999999999E+001  1.3890000000000009E+000  7.9669999999999996E+000
       C  1.1052000000000000E+001  6.1570000000000000E+000  1.4560000000000008E+000
       C  1.1052000000000000E+001  6.1570000000000000E+000  4.7220000000000040E+000
       C  1.1052000000000000E+001  6.1570000000000000E+000  7.9890000000000034E+000
       C  3.0542000000000016E+001  1.7410000000000011E+001  1.4560000000000008E+000
       C  3.0542000000000016E+001  1.7410000000000011E+001  4.7220000000000040E+000
       C  3.0542000000000016E+001  1.7410000000000011E+001  7.9890000000000034E+000
       C  8.4469999999999992E+000  5.1210000000000004E+000  1.4110000000000003E+000
       C  8.4469999999999992E+000  5.1210000000000004E+000  4.6770000000000005E+000
       C  8.4469999999999992E+000  5.1210000000000004E+000  7.9440000000000000E+000
       C  2.7937999999999999E+001  1.6373999999999999E+001  1.4110000000000003E+000
       C  2.7937999999999999E+001  1.6373999999999999E+001  4.6770000000000005E+000
       C  2.7937999999999999E+001  1.6373999999999999E+001  7.9440000000000000E+000
       H  9.5840000000000067E+000  2.0399999999999999E+001  1.4300000000000008E+000
       H  9.5840000000000067E+000  2.0399999999999999E+001  4.6970000000000001E+000
       H  9.5840000000000067E+000  2.0399999999999999E+001  7.9630000000000036E+000
       H  2.9075000000000010E+001  9.1470000000000056E+000  1.4300000000000008E+000
       H  2.9075000000000010E+001  9.1470000000000056E+000  4.6970000000000001E+000
       H  2.9075000000000010E+001  9.1470000000000056E+000  7.9630000000000036E+000
       H  9.8810000000000002E+000  1.3372000000000000E+001  1.4370000000000003E+000
       H  9.8810000000000002E+000  1.3372000000000000E+001  4.7030000000000003E+000
       H  9.8810000000000002E+000  1.3372000000000000E+001  7.9699999999999998E+000
       H  2.9372000000000000E+001  2.1190000000000007E+000  1.4370000000000003E+000
       H  2.9372000000000000E+001  2.1190000000000007E+000  4.7030000000000003E+000
       H  2.9372000000000000E+001  2.1190000000000007E+000  7.9699999999999998E+000
       H  1.6509000000000000E+001  2.0623000000000012E+001  1.4339999999999999E+000
       H  1.6509000000000000E+001  2.0623000000000012E+001  4.7000000000000002E+000
       H  1.6509000000000000E+001  2.0623000000000012E+001  7.9669999999999996E+000
       H  3.6000000000000000E+001  9.3700000000000028E+000  1.4339999999999999E+000
       H  3.6000000000000000E+001  9.3700000000000028E+000  4.7000000000000002E+000
       H  3.6000000000000000E+001  9.3700000000000028E+000  7.9669999999999996E+000